predicate globalCardinalityChoco(array [int] of var int: x,array [int] of int: cover,array [int] of var int: counts,bool: closed);
predicate alldifferentChoco(array [int] of var int: x);
predicate atleastChoco(int: n,array [int] of var int: x,int: v);
predicate atmostChoco(int: n,array [int] of var int: x,int: v);
array [1..15] of int: X_INTRODUCED_73_ = [1,1,1,1,1,1,1,1,1,1,1,1,1,1,1];
array [1..15] of int: X_INTRODUCED_74_ = [0,1,2,3,4,5,6,7,8,9,10,11,12,13,14];
array [1..2] of int: X_INTRODUCED_91_ = [1,1];
array [1..225] of int: X_INTRODUCED_260_ = [0,0,0,0,0,0,0,0,0,0,0,0,0,0,0,0,0,0,105,105,105,154,154,154,130,130,130,100,100,100,0,0,0,105,105,105,154,154,154,130,130,130,100,100,100,0,146,146,0,0,0,135,135,135,139,139,139,167,167,167,0,146,146,0,0,0,135,135,135,139,139,139,167,167,167,0,146,146,0,0,0,135,135,135,139,139,139,167,167,167,0,101,101,183,183,183,0,0,0,193,193,193,113,113,113,0,101,101,183,183,183,0,0,0,193,193,193,113,113,113,0,101,101,183,183,183,0,0,0,193,193,193,113,113,113,0,188,188,112,112,112,111,111,111,0,0,0,103,103,103,0,188,188,112,112,112,111,111,111,0,0,0,103,103,103,0,188,188,112,112,112,111,111,111,0,0,0,103,103,103,0,179,179,117,117,117,161,161,161,124,124,124,0,0,0,0,179,179,117,117,117,161,161,161,124,124,124,0,0,0,0,179,179,117,117,117,161,161,161,124,124,124,0,0,0];
array [1..2] of int: X_INTRODUCED_289_ = [1,-1];
array [1..29] of int: X_INTRODUCED_296_ = [1,-1,-1,-1,-1,-1,-1,-1,-1,-1,-1,-1,-1,-1,-1,-10,-10,-10,-10,-10,-10,-10,-10,-10,-10,-10,-10,-10,-10];
var 0..14: X_INTRODUCED_0_;
var 0..14: X_INTRODUCED_1_;
var 0..14: X_INTRODUCED_2_;
var 0..14: X_INTRODUCED_3_;
var 0..14: X_INTRODUCED_4_;
var {0,1,2,4,5,6,7,8,9,10,11,12,13,14}: X_INTRODUCED_5_;
var {0,1,2,4,5,6,7,8,9,10,11,12,13,14}: X_INTRODUCED_6_;
var {0,1,2,4,5,7,8,9,10,11,12,13,14}: X_INTRODUCED_7_;
var {0,2,4,5,7,8,10,11,12,13,14}: X_INTRODUCED_8_;
var {0,2,4,5,7,8,10,11,13,14}: X_INTRODUCED_9_;
var {0,2,4,5,7,8,10,11,13,14}: X_INTRODUCED_10_;
var {0,2,4,5,7,8,11,13,14}: X_INTRODUCED_11_;
var {0,2,5,8,11,14}: X_INTRODUCED_12_;
var {0,2,5,8,11,14}: X_INTRODUCED_13_;
var {0,5,11,14}: X_INTRODUCED_14_;
var 1..15: X_INTRODUCED_15_;
var 1..15: X_INTRODUCED_16_;
var 1..15: X_INTRODUCED_17_;
var 1..15: X_INTRODUCED_18_;
var 1..15: X_INTRODUCED_19_;
var 1..15: X_INTRODUCED_20_;
var 1..15: X_INTRODUCED_21_;
var 1..15: X_INTRODUCED_22_;
var 1..15: X_INTRODUCED_23_;
var 1..15: X_INTRODUCED_24_;
var 1..15: X_INTRODUCED_25_;
var 1..15: X_INTRODUCED_26_;
var 1..15: X_INTRODUCED_27_;
var 1..15: X_INTRODUCED_28_;
var 0..7: X_INTRODUCED_29_:: is_defined_var;
var 0..13: X_INTRODUCED_30_:: is_defined_var;
var 0..4: X_INTRODUCED_31_:: is_defined_var;
var 0..11: X_INTRODUCED_32_:: is_defined_var;
var 0..14: X_INTRODUCED_33_:: is_defined_var;
var 0..6: X_INTRODUCED_34_:: is_defined_var;
var 0..11: X_INTRODUCED_35_:: is_defined_var;
var 0..13: X_INTRODUCED_36_:: is_defined_var;
var 0..7: X_INTRODUCED_37_:: is_defined_var;
var 0..10: X_INTRODUCED_38_:: is_defined_var;
var 0..14: X_INTRODUCED_39_:: is_defined_var;
var 0..8: X_INTRODUCED_40_:: is_defined_var;
var 0..11: X_INTRODUCED_41_:: is_defined_var;
var 0..14: X_INTRODUCED_42_:: is_defined_var;
var 0..14: X_INTRODUCED_58_;
var 0..14: X_INTRODUCED_59_;
var 0..14: X_INTRODUCED_60_;
var 0..14: X_INTRODUCED_61_;
var 0..14: X_INTRODUCED_62_;
var 0..14: X_INTRODUCED_63_;
var 0..14: X_INTRODUCED_64_;
var 0..14: X_INTRODUCED_65_;
var 0..14: X_INTRODUCED_66_;
var 0..14: X_INTRODUCED_67_;
var 0..14: X_INTRODUCED_68_;
var 0..14: X_INTRODUCED_69_;
var 0..14: X_INTRODUCED_70_;
var 0..14: X_INTRODUCED_71_;
var 0..4132: objective:: output_var:: is_defined_var;
var bool: X_INTRODUCED_105_ ::var_is_introduced :: is_defined_var;
var bool: X_INTRODUCED_106_ ::var_is_introduced :: is_defined_var;
var bool: X_INTRODUCED_107_ ::var_is_introduced :: is_defined_var;
var bool: X_INTRODUCED_116_ ::var_is_introduced :: is_defined_var;
var bool: X_INTRODUCED_117_ ::var_is_introduced :: is_defined_var;
var bool: X_INTRODUCED_118_ ::var_is_introduced :: is_defined_var;
var bool: X_INTRODUCED_127_ ::var_is_introduced :: is_defined_var;
var bool: X_INTRODUCED_128_ ::var_is_introduced :: is_defined_var;
var bool: X_INTRODUCED_129_ ::var_is_introduced :: is_defined_var;
var bool: X_INTRODUCED_138_ ::var_is_introduced :: is_defined_var;
var bool: X_INTRODUCED_139_ ::var_is_introduced :: is_defined_var;
var bool: X_INTRODUCED_140_ ::var_is_introduced :: is_defined_var;
var bool: X_INTRODUCED_149_ ::var_is_introduced :: is_defined_var;
var bool: X_INTRODUCED_150_ ::var_is_introduced :: is_defined_var;
var bool: X_INTRODUCED_151_ ::var_is_introduced :: is_defined_var;
var bool: X_INTRODUCED_160_ ::var_is_introduced :: is_defined_var;
var bool: X_INTRODUCED_161_ ::var_is_introduced :: is_defined_var;
var bool: X_INTRODUCED_162_ ::var_is_introduced :: is_defined_var;
var bool: X_INTRODUCED_171_ ::var_is_introduced :: is_defined_var;
var bool: X_INTRODUCED_172_ ::var_is_introduced :: is_defined_var;
var bool: X_INTRODUCED_173_ ::var_is_introduced :: is_defined_var;
var bool: X_INTRODUCED_182_ ::var_is_introduced :: is_defined_var;
var bool: X_INTRODUCED_183_ ::var_is_introduced :: is_defined_var;
var bool: X_INTRODUCED_184_ ::var_is_introduced :: is_defined_var;
var bool: X_INTRODUCED_193_ ::var_is_introduced :: is_defined_var;
var bool: X_INTRODUCED_194_ ::var_is_introduced :: is_defined_var;
var bool: X_INTRODUCED_195_ ::var_is_introduced :: is_defined_var;
var bool: X_INTRODUCED_204_ ::var_is_introduced :: is_defined_var;
var bool: X_INTRODUCED_205_ ::var_is_introduced :: is_defined_var;
var bool: X_INTRODUCED_206_ ::var_is_introduced :: is_defined_var;
var bool: X_INTRODUCED_215_ ::var_is_introduced :: is_defined_var;
var bool: X_INTRODUCED_216_ ::var_is_introduced :: is_defined_var;
var bool: X_INTRODUCED_217_ ::var_is_introduced :: is_defined_var;
var bool: X_INTRODUCED_226_ ::var_is_introduced :: is_defined_var;
var bool: X_INTRODUCED_227_ ::var_is_introduced :: is_defined_var;
var bool: X_INTRODUCED_228_ ::var_is_introduced :: is_defined_var;
var bool: X_INTRODUCED_237_ ::var_is_introduced :: is_defined_var;
var bool: X_INTRODUCED_238_ ::var_is_introduced :: is_defined_var;
var bool: X_INTRODUCED_239_ ::var_is_introduced :: is_defined_var;
var bool: X_INTRODUCED_248_ ::var_is_introduced :: is_defined_var;
var bool: X_INTRODUCED_249_ ::var_is_introduced :: is_defined_var;
var bool: X_INTRODUCED_250_ ::var_is_introduced :: is_defined_var;
var 0..193: X_INTRODUCED_259_ ::var_is_introduced :: is_defined_var;
var 1..225: X_INTRODUCED_262_ ::var_is_introduced :: is_defined_var;
var 0..193: X_INTRODUCED_263_ ::var_is_introduced :: is_defined_var;
var 1..225: X_INTRODUCED_264_ ::var_is_introduced :: is_defined_var;
var 0..193: X_INTRODUCED_265_ ::var_is_introduced :: is_defined_var;
var 1..225: X_INTRODUCED_266_ ::var_is_introduced :: is_defined_var;
var 0..193: X_INTRODUCED_267_ ::var_is_introduced :: is_defined_var;
var 1..225: X_INTRODUCED_268_ ::var_is_introduced :: is_defined_var;
var 0..193: X_INTRODUCED_269_ ::var_is_introduced :: is_defined_var;
var 1..225: X_INTRODUCED_270_ ::var_is_introduced :: is_defined_var;
var 0..193: X_INTRODUCED_271_ ::var_is_introduced :: is_defined_var;
var 1..225: X_INTRODUCED_272_ ::var_is_introduced :: is_defined_var;
var 0..193: X_INTRODUCED_273_ ::var_is_introduced :: is_defined_var;
var 1..225: X_INTRODUCED_274_ ::var_is_introduced :: is_defined_var;
var 0..193: X_INTRODUCED_275_ ::var_is_introduced :: is_defined_var;
var 1..225: X_INTRODUCED_276_ ::var_is_introduced :: is_defined_var;
var 0..193: X_INTRODUCED_277_ ::var_is_introduced :: is_defined_var;
var 1..225: X_INTRODUCED_278_ ::var_is_introduced :: is_defined_var;
var 0..193: X_INTRODUCED_279_ ::var_is_introduced :: is_defined_var;
var 1..225: X_INTRODUCED_280_ ::var_is_introduced :: is_defined_var;
var 0..193: X_INTRODUCED_281_ ::var_is_introduced :: is_defined_var;
var 1..225: X_INTRODUCED_282_ ::var_is_introduced :: is_defined_var;
var 0..193: X_INTRODUCED_283_ ::var_is_introduced :: is_defined_var;
var 1..225: X_INTRODUCED_284_ ::var_is_introduced :: is_defined_var;
var 0..193: X_INTRODUCED_285_ ::var_is_introduced :: is_defined_var;
var 1..225: X_INTRODUCED_286_ ::var_is_introduced :: is_defined_var;
var 0..193: X_INTRODUCED_287_ ::var_is_introduced :: is_defined_var;
var 1..225: X_INTRODUCED_288_ ::var_is_introduced :: is_defined_var;
array [1..15] of var int: production_by_order:: output_array([1..15]) = [X_INTRODUCED_0_,X_INTRODUCED_1_,X_INTRODUCED_2_,X_INTRODUCED_3_,X_INTRODUCED_4_,X_INTRODUCED_5_,X_INTRODUCED_6_,X_INTRODUCED_7_,X_INTRODUCED_8_,X_INTRODUCED_9_,X_INTRODUCED_10_,X_INTRODUCED_11_,X_INTRODUCED_12_,X_INTRODUCED_13_,X_INTRODUCED_14_];
array [1..14] of var int: production_period = [X_INTRODUCED_15_,X_INTRODUCED_16_,X_INTRODUCED_17_,X_INTRODUCED_18_,X_INTRODUCED_19_,X_INTRODUCED_20_,X_INTRODUCED_21_,X_INTRODUCED_22_,X_INTRODUCED_23_,X_INTRODUCED_24_,X_INTRODUCED_25_,X_INTRODUCED_26_,X_INTRODUCED_27_,X_INTRODUCED_28_];
array [1..14] of var int: inventory_periods:: output_array([1..14]) = [X_INTRODUCED_29_,X_INTRODUCED_30_,X_INTRODUCED_31_,X_INTRODUCED_32_,X_INTRODUCED_33_,X_INTRODUCED_34_,X_INTRODUCED_35_,X_INTRODUCED_36_,X_INTRODUCED_37_,X_INTRODUCED_38_,X_INTRODUCED_39_,X_INTRODUCED_40_,X_INTRODUCED_41_,X_INTRODUCED_42_];
array [1..15] of var int: production_order = [X_INTRODUCED_0_,X_INTRODUCED_58_,X_INTRODUCED_59_,X_INTRODUCED_60_,X_INTRODUCED_61_,X_INTRODUCED_62_,X_INTRODUCED_63_,X_INTRODUCED_64_,X_INTRODUCED_65_,X_INTRODUCED_66_,X_INTRODUCED_67_,X_INTRODUCED_68_,X_INTRODUCED_69_,X_INTRODUCED_70_,X_INTRODUCED_71_];
array [1..29] of var int: X_INTRODUCED_295_ ::var_is_introduced  = [objective,X_INTRODUCED_259_,X_INTRODUCED_263_,X_INTRODUCED_265_,X_INTRODUCED_267_,X_INTRODUCED_269_,X_INTRODUCED_271_,X_INTRODUCED_273_,X_INTRODUCED_275_,X_INTRODUCED_277_,X_INTRODUCED_279_,X_INTRODUCED_281_,X_INTRODUCED_283_,X_INTRODUCED_285_,X_INTRODUCED_287_,X_INTRODUCED_29_,X_INTRODUCED_30_,X_INTRODUCED_31_,X_INTRODUCED_32_,X_INTRODUCED_33_,X_INTRODUCED_34_,X_INTRODUCED_35_,X_INTRODUCED_36_,X_INTRODUCED_37_,X_INTRODUCED_38_,X_INTRODUCED_39_,X_INTRODUCED_40_,X_INTRODUCED_41_,X_INTRODUCED_42_];
constraint globalCardinalityChoco(production_by_order,X_INTRODUCED_74_,X_INTRODUCED_73_,false);
constraint array_var_int_element(X_INTRODUCED_15_,production_by_order,1);
constraint array_var_int_element(X_INTRODUCED_16_,production_by_order,2);
constraint array_var_int_element(X_INTRODUCED_17_,production_by_order,3);
constraint array_var_int_element(X_INTRODUCED_18_,production_by_order,4);
constraint array_var_int_element(X_INTRODUCED_19_,production_by_order,5);
constraint array_var_int_element(X_INTRODUCED_20_,production_by_order,6);
constraint array_var_int_element(X_INTRODUCED_21_,production_by_order,7);
constraint array_var_int_element(X_INTRODUCED_22_,production_by_order,8);
constraint array_var_int_element(X_INTRODUCED_23_,production_by_order,9);
constraint array_var_int_element(X_INTRODUCED_24_,production_by_order,10);
constraint array_var_int_element(X_INTRODUCED_25_,production_by_order,11);
constraint array_var_int_element(X_INTRODUCED_26_,production_by_order,12);
constraint array_var_int_element(X_INTRODUCED_27_,production_by_order,13);
constraint array_var_int_element(X_INTRODUCED_28_,production_by_order,14);
constraint alldifferentChoco(production_period);
constraint int_lin_eq(X_INTRODUCED_91_,[X_INTRODUCED_29_,X_INTRODUCED_15_],8):: defines_var(X_INTRODUCED_29_);
constraint int_lin_eq(X_INTRODUCED_91_,[X_INTRODUCED_30_,X_INTRODUCED_16_],14):: defines_var(X_INTRODUCED_30_);
constraint int_lin_eq(X_INTRODUCED_91_,[X_INTRODUCED_31_,X_INTRODUCED_17_],5):: defines_var(X_INTRODUCED_31_);
constraint int_lin_eq(X_INTRODUCED_91_,[X_INTRODUCED_32_,X_INTRODUCED_18_],12):: defines_var(X_INTRODUCED_32_);
constraint int_lin_eq(X_INTRODUCED_91_,[X_INTRODUCED_33_,X_INTRODUCED_19_],15):: defines_var(X_INTRODUCED_33_);
constraint int_lin_eq(X_INTRODUCED_91_,[X_INTRODUCED_34_,X_INTRODUCED_20_],7):: defines_var(X_INTRODUCED_34_);
constraint int_lin_eq(X_INTRODUCED_91_,[X_INTRODUCED_35_,X_INTRODUCED_21_],12):: defines_var(X_INTRODUCED_35_);
constraint int_lin_eq(X_INTRODUCED_91_,[X_INTRODUCED_36_,X_INTRODUCED_22_],14):: defines_var(X_INTRODUCED_36_);
constraint int_lin_eq(X_INTRODUCED_91_,[X_INTRODUCED_37_,X_INTRODUCED_23_],8):: defines_var(X_INTRODUCED_37_);
constraint int_lin_eq(X_INTRODUCED_91_,[X_INTRODUCED_38_,X_INTRODUCED_24_],11):: defines_var(X_INTRODUCED_38_);
constraint int_lin_eq(X_INTRODUCED_91_,[X_INTRODUCED_39_,X_INTRODUCED_25_],15):: defines_var(X_INTRODUCED_39_);
constraint int_lin_eq(X_INTRODUCED_91_,[X_INTRODUCED_40_,X_INTRODUCED_26_],9):: defines_var(X_INTRODUCED_40_);
constraint int_lin_eq(X_INTRODUCED_91_,[X_INTRODUCED_41_,X_INTRODUCED_27_],12):: defines_var(X_INTRODUCED_41_);
constraint int_lin_eq(X_INTRODUCED_91_,[X_INTRODUCED_42_,X_INTRODUCED_28_],15):: defines_var(X_INTRODUCED_42_);
constraint bool_clause([X_INTRODUCED_106_],[X_INTRODUCED_105_]);
constraint array_bool_or([X_INTRODUCED_105_,X_INTRODUCED_107_],true);
constraint bool_clause([X_INTRODUCED_117_],[X_INTRODUCED_116_]);
constraint array_bool_or([X_INTRODUCED_116_,X_INTRODUCED_118_],true);
constraint bool_clause([X_INTRODUCED_128_],[X_INTRODUCED_127_]);
constraint array_bool_or([X_INTRODUCED_127_,X_INTRODUCED_129_],true);
constraint bool_clause([X_INTRODUCED_139_],[X_INTRODUCED_138_]);
constraint array_bool_or([X_INTRODUCED_138_,X_INTRODUCED_140_],true);
constraint bool_clause([X_INTRODUCED_150_],[X_INTRODUCED_149_]);
constraint array_bool_or([X_INTRODUCED_149_,X_INTRODUCED_151_],true);
constraint bool_clause([X_INTRODUCED_161_],[X_INTRODUCED_160_]);
constraint array_bool_or([X_INTRODUCED_160_,X_INTRODUCED_162_],true);
constraint bool_clause([X_INTRODUCED_172_],[X_INTRODUCED_171_]);
constraint array_bool_or([X_INTRODUCED_171_,X_INTRODUCED_173_],true);
constraint bool_clause([X_INTRODUCED_183_],[X_INTRODUCED_182_]);
constraint array_bool_or([X_INTRODUCED_182_,X_INTRODUCED_184_],true);
constraint bool_clause([X_INTRODUCED_194_],[X_INTRODUCED_193_]);
constraint array_bool_or([X_INTRODUCED_193_,X_INTRODUCED_195_],true);
constraint bool_clause([X_INTRODUCED_205_],[X_INTRODUCED_204_]);
constraint array_bool_or([X_INTRODUCED_204_,X_INTRODUCED_206_],true);
constraint bool_clause([X_INTRODUCED_216_],[X_INTRODUCED_215_]);
constraint array_bool_or([X_INTRODUCED_215_,X_INTRODUCED_217_],true);
constraint bool_clause([X_INTRODUCED_227_],[X_INTRODUCED_226_]);
constraint array_bool_or([X_INTRODUCED_226_,X_INTRODUCED_228_],true);
constraint bool_clause([X_INTRODUCED_238_],[X_INTRODUCED_237_]);
constraint array_bool_or([X_INTRODUCED_237_,X_INTRODUCED_239_],true);
constraint bool_clause([X_INTRODUCED_249_],[X_INTRODUCED_248_]);
constraint array_bool_or([X_INTRODUCED_248_,X_INTRODUCED_250_],true);
constraint atleastChoco(1,production_order,1);
constraint atmostChoco(2,production_order,1);
constraint atleastChoco(1,production_order,2);
constraint atmostChoco(2,production_order,2);
constraint atleastChoco(1,production_order,3);
constraint atmostChoco(2,production_order,3);
constraint atleastChoco(1,production_order,4);
constraint atmostChoco(2,production_order,4);
constraint atleastChoco(1,production_order,5);
constraint atmostChoco(2,production_order,5);
constraint atleastChoco(1,production_order,6);
constraint atmostChoco(2,production_order,6);
constraint atleastChoco(1,production_order,7);
constraint atmostChoco(2,production_order,7);
constraint atleastChoco(1,production_order,8);
constraint atmostChoco(2,production_order,8);
constraint atleastChoco(1,production_order,9);
constraint atmostChoco(2,production_order,9);
constraint atleastChoco(1,production_order,10);
constraint atmostChoco(2,production_order,10);
constraint atleastChoco(1,production_order,11);
constraint atmostChoco(2,production_order,11);
constraint atleastChoco(1,production_order,12);
constraint atmostChoco(2,production_order,12);
constraint atleastChoco(1,production_order,13);
constraint atmostChoco(2,production_order,13);
constraint atleastChoco(1,production_order,14);
constraint atmostChoco(2,production_order,14);
constraint array_int_element(X_INTRODUCED_262_,X_INTRODUCED_260_,X_INTRODUCED_259_);
constraint array_int_element(X_INTRODUCED_264_,X_INTRODUCED_260_,X_INTRODUCED_263_);
constraint array_int_element(X_INTRODUCED_266_,X_INTRODUCED_260_,X_INTRODUCED_265_);
constraint array_int_element(X_INTRODUCED_268_,X_INTRODUCED_260_,X_INTRODUCED_267_);
constraint array_int_element(X_INTRODUCED_270_,X_INTRODUCED_260_,X_INTRODUCED_269_);
constraint array_int_element(X_INTRODUCED_272_,X_INTRODUCED_260_,X_INTRODUCED_271_);
constraint array_int_element(X_INTRODUCED_274_,X_INTRODUCED_260_,X_INTRODUCED_273_);
constraint array_int_element(X_INTRODUCED_276_,X_INTRODUCED_260_,X_INTRODUCED_275_);
constraint array_int_element(X_INTRODUCED_278_,X_INTRODUCED_260_,X_INTRODUCED_277_);
constraint array_int_element(X_INTRODUCED_280_,X_INTRODUCED_260_,X_INTRODUCED_279_);
constraint array_int_element(X_INTRODUCED_282_,X_INTRODUCED_260_,X_INTRODUCED_281_);
constraint array_int_element(X_INTRODUCED_284_,X_INTRODUCED_260_,X_INTRODUCED_283_);
constraint array_int_element(X_INTRODUCED_286_,X_INTRODUCED_260_,X_INTRODUCED_285_);
constraint array_int_element(X_INTRODUCED_288_,X_INTRODUCED_260_,X_INTRODUCED_287_);
constraint int_lin_le(X_INTRODUCED_289_,[X_INTRODUCED_15_,X_INTRODUCED_16_],-1);
constraint int_lin_le(X_INTRODUCED_289_,[X_INTRODUCED_17_,X_INTRODUCED_18_],-1);
constraint int_lin_le(X_INTRODUCED_289_,[X_INTRODUCED_18_,X_INTRODUCED_19_],-1);
constraint int_lin_le(X_INTRODUCED_289_,[X_INTRODUCED_20_,X_INTRODUCED_21_],-1);
constraint int_lin_le(X_INTRODUCED_289_,[X_INTRODUCED_21_,X_INTRODUCED_22_],-1);
constraint int_lin_le(X_INTRODUCED_289_,[X_INTRODUCED_23_,X_INTRODUCED_24_],-1);
constraint int_lin_le(X_INTRODUCED_289_,[X_INTRODUCED_24_,X_INTRODUCED_25_],-1);
constraint int_lin_le(X_INTRODUCED_289_,[X_INTRODUCED_26_,X_INTRODUCED_27_],-1);
constraint int_lin_le(X_INTRODUCED_289_,[X_INTRODUCED_27_,X_INTRODUCED_28_],-1);
constraint int_lin_eq(X_INTRODUCED_296_,X_INTRODUCED_295_,0):: defines_var(objective);
constraint int_eq_reif(X_INTRODUCED_1_,0,X_INTRODUCED_105_):: defines_var(X_INTRODUCED_105_);
constraint int_eq_reif(X_INTRODUCED_58_,X_INTRODUCED_0_,X_INTRODUCED_106_):: defines_var(X_INTRODUCED_106_);
constraint int_eq_reif(X_INTRODUCED_58_,X_INTRODUCED_1_,X_INTRODUCED_107_):: defines_var(X_INTRODUCED_107_);
constraint int_eq_reif(X_INTRODUCED_2_,0,X_INTRODUCED_116_):: defines_var(X_INTRODUCED_116_);
constraint int_eq_reif(X_INTRODUCED_59_,X_INTRODUCED_58_,X_INTRODUCED_117_):: defines_var(X_INTRODUCED_117_);
constraint int_eq_reif(X_INTRODUCED_59_,X_INTRODUCED_2_,X_INTRODUCED_118_):: defines_var(X_INTRODUCED_118_);
constraint int_eq_reif(X_INTRODUCED_3_,0,X_INTRODUCED_127_):: defines_var(X_INTRODUCED_127_);
constraint int_eq_reif(X_INTRODUCED_60_,X_INTRODUCED_59_,X_INTRODUCED_128_):: defines_var(X_INTRODUCED_128_);
constraint int_eq_reif(X_INTRODUCED_60_,X_INTRODUCED_3_,X_INTRODUCED_129_):: defines_var(X_INTRODUCED_129_);
constraint int_eq_reif(X_INTRODUCED_4_,0,X_INTRODUCED_138_):: defines_var(X_INTRODUCED_138_);
constraint int_eq_reif(X_INTRODUCED_61_,X_INTRODUCED_60_,X_INTRODUCED_139_):: defines_var(X_INTRODUCED_139_);
constraint int_eq_reif(X_INTRODUCED_61_,X_INTRODUCED_4_,X_INTRODUCED_140_):: defines_var(X_INTRODUCED_140_);
constraint int_eq_reif(X_INTRODUCED_5_,0,X_INTRODUCED_149_):: defines_var(X_INTRODUCED_149_);
constraint int_eq_reif(X_INTRODUCED_62_,X_INTRODUCED_61_,X_INTRODUCED_150_):: defines_var(X_INTRODUCED_150_);
constraint int_eq_reif(X_INTRODUCED_62_,X_INTRODUCED_5_,X_INTRODUCED_151_):: defines_var(X_INTRODUCED_151_);
constraint int_eq_reif(X_INTRODUCED_6_,0,X_INTRODUCED_160_):: defines_var(X_INTRODUCED_160_);
constraint int_eq_reif(X_INTRODUCED_63_,X_INTRODUCED_62_,X_INTRODUCED_161_):: defines_var(X_INTRODUCED_161_);
constraint int_eq_reif(X_INTRODUCED_63_,X_INTRODUCED_6_,X_INTRODUCED_162_):: defines_var(X_INTRODUCED_162_);
constraint int_eq_reif(X_INTRODUCED_7_,0,X_INTRODUCED_171_):: defines_var(X_INTRODUCED_171_);
constraint int_eq_reif(X_INTRODUCED_64_,X_INTRODUCED_63_,X_INTRODUCED_172_):: defines_var(X_INTRODUCED_172_);
constraint int_eq_reif(X_INTRODUCED_64_,X_INTRODUCED_7_,X_INTRODUCED_173_):: defines_var(X_INTRODUCED_173_);
constraint int_eq_reif(X_INTRODUCED_8_,0,X_INTRODUCED_182_):: defines_var(X_INTRODUCED_182_);
constraint int_eq_reif(X_INTRODUCED_65_,X_INTRODUCED_64_,X_INTRODUCED_183_):: defines_var(X_INTRODUCED_183_);
constraint int_eq_reif(X_INTRODUCED_65_,X_INTRODUCED_8_,X_INTRODUCED_184_):: defines_var(X_INTRODUCED_184_);
constraint int_eq_reif(X_INTRODUCED_9_,0,X_INTRODUCED_193_):: defines_var(X_INTRODUCED_193_);
constraint int_eq_reif(X_INTRODUCED_66_,X_INTRODUCED_65_,X_INTRODUCED_194_):: defines_var(X_INTRODUCED_194_);
constraint int_eq_reif(X_INTRODUCED_66_,X_INTRODUCED_9_,X_INTRODUCED_195_):: defines_var(X_INTRODUCED_195_);
constraint int_eq_reif(X_INTRODUCED_10_,0,X_INTRODUCED_204_):: defines_var(X_INTRODUCED_204_);
constraint int_eq_reif(X_INTRODUCED_67_,X_INTRODUCED_66_,X_INTRODUCED_205_):: defines_var(X_INTRODUCED_205_);
constraint int_eq_reif(X_INTRODUCED_67_,X_INTRODUCED_10_,X_INTRODUCED_206_):: defines_var(X_INTRODUCED_206_);
constraint int_eq_reif(X_INTRODUCED_11_,0,X_INTRODUCED_215_):: defines_var(X_INTRODUCED_215_);
constraint int_eq_reif(X_INTRODUCED_68_,X_INTRODUCED_67_,X_INTRODUCED_216_):: defines_var(X_INTRODUCED_216_);
constraint int_eq_reif(X_INTRODUCED_68_,X_INTRODUCED_11_,X_INTRODUCED_217_):: defines_var(X_INTRODUCED_217_);
constraint int_eq_reif(X_INTRODUCED_12_,0,X_INTRODUCED_226_):: defines_var(X_INTRODUCED_226_);
constraint int_eq_reif(X_INTRODUCED_69_,X_INTRODUCED_68_,X_INTRODUCED_227_):: defines_var(X_INTRODUCED_227_);
constraint int_eq_reif(X_INTRODUCED_69_,X_INTRODUCED_12_,X_INTRODUCED_228_):: defines_var(X_INTRODUCED_228_);
constraint int_eq_reif(X_INTRODUCED_13_,0,X_INTRODUCED_237_):: defines_var(X_INTRODUCED_237_);
constraint int_eq_reif(X_INTRODUCED_70_,X_INTRODUCED_69_,X_INTRODUCED_238_):: defines_var(X_INTRODUCED_238_);
constraint int_eq_reif(X_INTRODUCED_70_,X_INTRODUCED_13_,X_INTRODUCED_239_):: defines_var(X_INTRODUCED_239_);
constraint int_eq_reif(X_INTRODUCED_14_,0,X_INTRODUCED_248_):: defines_var(X_INTRODUCED_248_);
constraint int_eq_reif(X_INTRODUCED_71_,X_INTRODUCED_70_,X_INTRODUCED_249_):: defines_var(X_INTRODUCED_249_);
constraint int_eq_reif(X_INTRODUCED_71_,X_INTRODUCED_14_,X_INTRODUCED_250_):: defines_var(X_INTRODUCED_250_);
constraint int_lin_eq([1,15,-1],[X_INTRODUCED_58_,X_INTRODUCED_0_,X_INTRODUCED_262_],-1):: domain:: defines_var(X_INTRODUCED_262_);
constraint int_lin_eq([1,15,-1],[X_INTRODUCED_59_,X_INTRODUCED_58_,X_INTRODUCED_264_],-1):: domain:: defines_var(X_INTRODUCED_264_);
constraint int_lin_eq([1,15,-1],[X_INTRODUCED_60_,X_INTRODUCED_59_,X_INTRODUCED_266_],-1):: domain:: defines_var(X_INTRODUCED_266_);
constraint int_lin_eq([1,15,-1],[X_INTRODUCED_61_,X_INTRODUCED_60_,X_INTRODUCED_268_],-1):: domain:: defines_var(X_INTRODUCED_268_);
constraint int_lin_eq([1,15,-1],[X_INTRODUCED_62_,X_INTRODUCED_61_,X_INTRODUCED_270_],-1):: domain:: defines_var(X_INTRODUCED_270_);
constraint int_lin_eq([1,15,-1],[X_INTRODUCED_63_,X_INTRODUCED_62_,X_INTRODUCED_272_],-1):: domain:: defines_var(X_INTRODUCED_272_);
constraint int_lin_eq([1,15,-1],[X_INTRODUCED_64_,X_INTRODUCED_63_,X_INTRODUCED_274_],-1):: domain:: defines_var(X_INTRODUCED_274_);
constraint int_lin_eq([1,15,-1],[X_INTRODUCED_65_,X_INTRODUCED_64_,X_INTRODUCED_276_],-1):: domain:: defines_var(X_INTRODUCED_276_);
constraint int_lin_eq([1,15,-1],[X_INTRODUCED_66_,X_INTRODUCED_65_,X_INTRODUCED_278_],-1):: domain:: defines_var(X_INTRODUCED_278_);
constraint int_lin_eq([1,15,-1],[X_INTRODUCED_67_,X_INTRODUCED_66_,X_INTRODUCED_280_],-1):: domain:: defines_var(X_INTRODUCED_280_);
constraint int_lin_eq([1,15,-1],[X_INTRODUCED_68_,X_INTRODUCED_67_,X_INTRODUCED_282_],-1):: domain:: defines_var(X_INTRODUCED_282_);
constraint int_lin_eq([1,15,-1],[X_INTRODUCED_69_,X_INTRODUCED_68_,X_INTRODUCED_284_],-1):: domain:: defines_var(X_INTRODUCED_284_);
constraint int_lin_eq([1,15,-1],[X_INTRODUCED_70_,X_INTRODUCED_69_,X_INTRODUCED_286_],-1):: domain:: defines_var(X_INTRODUCED_286_);
constraint int_lin_eq([1,15,-1],[X_INTRODUCED_71_,X_INTRODUCED_70_,X_INTRODUCED_288_],-1):: domain:: defines_var(X_INTRODUCED_288_);
solve :: seq_search([int_search(production_by_order,first_fail,indomain_median,complete),int_search(inventory_periods,first_fail,indomain_min,complete)]) minimize objective;
